3 
4  47 58 
5  09 28 36 44 53 
6  03 11 19 26 34 41 49 56 
7  04 11 19 26 34 41 49 56 
8  04 11 19 26 34 41 49 56 
9  03 11 18 26 33 41 48 56 
10  03 11 18 26 33 41 48 56 
11  03 11 18 26 33 41 48 56 
12  03 11 18 26 33 41 48 56 
13  03 11 18 26 33 41 48 56 
14  03 11 18 26 33 41 48 56 
15  03 11 18 26 33 41 48 56 
16  03 11 18 26 33 41 48 56 
17  03 11 18 26 33 41 48 56 
18  03 11 18 26 33 41 48 56 
19  03 11 18 26 33 41 48 56 
20  05 20 35 50 
21  05 20 35 49 
22  04 20 35 49 
23 
